# Bulk EPOXY monomers
units	        real	
atom_style      full	
bond_style      table linear 10000	
angle_style     table linear 10000
dihedral_style  table linear 10000
pair_style      table linear 1000
special_bonds   lj 0.0 0.0 0.0
dimension	3
timestep        1.0
boundary        p p p
read_data       data.1000057 
#read_restart    restart1.md       
pair_coeff      1 1 A_A.xvg VOTCA
pair_coeff      1 2 A_B.xvg VOTCA
pair_coeff      1 3 A_E.xvg VOTCA
pair_coeff      1 4 A_F.xvg VOTCA
pair_coeff      1 5 A_H.xvg VOTCA
pair_coeff      1 6 A_I.xvg VOTCA
pair_coeff      1 7 A_K.xvg VOTCA
pair_coeff      1 8 A_A.xvg VOTCA
pair_coeff      1 9 A_H.xvg VOTCA
pair_coeff      1 10 A_K.xvg VOTCA
pair_coeff      1 11 A_E.xvg VOTCA
pair_coeff      2 2 B_B.xvg VOTCA
pair_coeff      2 3 B_E.xvg VOTCA
pair_coeff      2 4 B_F.xvg VOTCA
pair_coeff      2 5 B_H.xvg VOTCA
pair_coeff      2 6 B_I.xvg VOTCA
pair_coeff      2 7 B_K.xvg VOTCA
pair_coeff      2 8 A_B.xvg VOTCA
pair_coeff      2 9 B_H.xvg VOTCA
pair_coeff      2 10 B_K.xvg VOTCA
pair_coeff      2 11 B_E.xvg VOTCA
pair_coeff      3 3 E_E.xvg VOTCA
pair_coeff      3 4 E_F.xvg VOTCA
pair_coeff      3 5 E_H.xvg VOTCA
pair_coeff      3 6 E_I.xvg VOTCA
pair_coeff      3 7 E_K.xvg VOTCA
pair_coeff      3 8 A_E.xvg VOTCA
pair_coeff      3 9 E_H.xvg VOTCA
pair_coeff      3 10 E_K.xvg VOTCA
pair_coeff      3 11 E_E.xvg VOTCA
pair_coeff      4 4 F_F.xvg VOTCA
pair_coeff      4 5 F_H.xvg VOTCA
pair_coeff      4 6 F_I.xvg VOTCA
pair_coeff      4 7 F_K.xvg VOTCA
pair_coeff      4 8 A_F.xvg VOTCA
pair_coeff      4 9 F_H.xvg VOTCA
pair_coeff      4 10 F_K.xvg VOTCA
pair_coeff      4 11 E_F.xvg VOTCA
pair_coeff      5 5 H_H.xvg VOTCA
pair_coeff      5 6 H_I.xvg VOTCA
pair_coeff      5 7 H_K.xvg VOTCA
pair_coeff      5 8 A_H.xvg VOTCA
pair_coeff      5 9 H_H.xvg VOTCA
pair_coeff      5 10 H_K.xvg VOTCA
pair_coeff      5 11 E_H.xvg VOTCA
pair_coeff      6 6 I_I.xvg VOTCA
pair_coeff      6 7 I_K.xvg VOTCA
pair_coeff      6 8 A_I.xvg VOTCA
pair_coeff      6 9 H_I.xvg VOTCA
pair_coeff      6 10 I_K.xvg VOTCA
pair_coeff      6 11 E_I.xvg VOTCA
pair_coeff      7 7 K_K.xvg VOTCA
pair_coeff      7 8 A_K.xvg VOTCA
pair_coeff      7 9 H_K.xvg VOTCA
pair_coeff      7 10 K_K.xvg VOTCA
pair_coeff      7 11 E_K.xvg VOTCA
pair_coeff      8 8 A_A.xvg VOTCA
pair_coeff      8 9 A_H.xvg VOTCA
pair_coeff      8 10 A_K.xvg VOTCA
pair_coeff      8 11 A_E.xvg VOTCA
pair_coeff      9 9 H_H.xvg VOTCA
pair_coeff      9 10 H_K.xvg VOTCA
pair_coeff      9 11 E_H.xvg VOTCA
pair_coeff      10 10 K_K.xvg VOTCA
pair_coeff      10 11 E_K.xvg VOTCA
pair_coeff      11 11 E_E.xvg VOTCA
velocity	all create 700 87287 loop geom
neighbor	5.0 bin
neigh_modify    every 2 delay 10 check yes page 100000
#fix             1 all shake 0.00001 1000 0  
fix		2 all nvt temp 700.0 700.0 10.0 #iso 25000.0 25000.0 1000.0
fix             3 all langevin 700.0 700.0 1.0 82859 
group           attach type 1 5 
group           attach1 type 1 7 
group           attach2 type 3 5 
group           attach3 type 3 7 

fix             4 attach  bond/create 1000 1  5 5.0  4 prob 0.5 85784 iparam 1 8 jparam 2 9 select random keep_bondcount no
fix             5 attach1  bond/create 1000 1  7 5.66  5 prob 0.5 85784 iparam 1 8 jparam 4 10 select random keep_bondcount no

fix             6 attach2 bond/create 1000 3  5 5.0  4 prob 0.5 85784 iparam 1 11 jparam 2 9 select random keep_bondcount no
fix             7 attach3  bond/create 1000 3  7 5.66  5 prob 0.5 85784 iparam 1 11 jparam 4 10 select random keep_bondcount no

dump		1 all atom 5000 traj.dump
#dump_modify     1  element A B C D E F G H 
thermo          1000
thermo_style    custom time bonds ebond eangle evdwl pe ke etotal  
#minimize        1.0e-6 1.0e-8 10000 100000
#min_style       cg
run		25000000
restart         1000000 epoxy.restart
write_restart    restart2.md
write_data       data.* 
